
List of user-set options:

                                    Name   Value                used
                           linear_solver = ma97                  yes
                   linear_system_scaling = none                  yes
                              ma97_order = best                  yes
                              ma97_small = 1e-30                 yes
                            ma97_switch1 = at_start_reuse        yes
                            ma97_switch2 = od_hd_reuse           yes
                                  ma97_u = 0.0001                yes
                               ma97_umax = 0.1                   yes
                                max_iter = 20                    yes
                    max_refinement_steps = 20                    yes
                    min_refinement_steps = 5                     yes
                                 mu_init = 1e-06                 yes
           mu_superlinear_decrease_power = 1.25                  yes
                   nlp_scaling_min_value = 1e-08                 yes
                        option_file_name = ./ipopt.opt           yes
                             output_file = ./tmp/ipopt_output_tmp.output  yes
                      print_user_options = yes                   yes
        required_infeasibility_reduction = 1                      no
                   warm_start_bound_frac = 1e-20                 yes
                   warm_start_bound_push = 1e-20                 yes
                   warm_start_init_point = yes                   yes
              warm_start_mult_bound_push = 1e-20                 yes
                warm_start_mult_init_max = 1e+40                 yes
             warm_start_slack_bound_frac = 1e-20                 yes
             warm_start_slack_bound_push = 1e-20                 yes

******************************************************************************
This program contains Ipopt, a library for large-scale nonlinear optimization.
 Ipopt is released as open source code under the Eclipse Public License (EPL).
         For more information visit http://projects.coin-or.org/Ipopt
******************************************************************************

This is Ipopt version 3.12.10, running with linear solver ma97.

Number of nonzeros in equality constraint Jacobian...:   116956
Number of nonzeros in inequality constraint Jacobian.:      213
Number of nonzeros in Lagrangian Hessian.............:    47324

Total number of variables............................:    29939
                     variables with only lower bounds:    11312
                variables with lower and upper bounds:    15100
                     variables with only upper bounds:        0
Total number of equality constraints.................:    29862
Total number of inequality constraints...............:       25
        inequality constraints with only lower bounds:        4
   inequality constraints with lower and upper bounds:        0
        inequality constraints with only upper bounds:       21

iter    objective    inf_pr   inf_du lg(mu)  ||d||  lg(rg) alpha_du alpha_pr  ls
   0 -3.8971608e-02 7.60e-03 1.00e+00  -6.0 0.00e+00    -  0.00e+00 0.00e+00   0
   1 -3.8971610e-02 7.60e-03 1.00e+00  -6.0 8.63e+05  -4.0 7.21e-07 1.99e-10f  1
   2 -3.8973057e-02 7.58e-03 1.37e+02  -6.0 4.54e+01  -4.5 4.63e-01 1.83e-03f  1
   3 -4.7996510e-02 5.19e+00 1.35e+02  -6.0 3.39e+04    -  1.19e-02 1.21e-02f  1
   4 -4.7987707e-02 5.18e+00 7.14e+03  -6.0 9.01e+02    -  3.94e-01 3.66e-04h  1
   5 -4.8183897e-02 5.18e+00 6.76e+03  -6.0 2.94e+04    -  1.07e-02 3.92e-04h  1
   6 -4.9745311e-02 4.57e+00 5.86e+03  -6.0 4.03e+02    -  2.17e-02 1.34e-01h  1
   7 -5.3369625e-02 3.44e+00 7.83e+02  -6.0 3.69e+02    -  1.16e-01 2.94e-01h  1
